120 150

49
55
43
45
60
58
41
60
47
51
45
54
48
57
45
48
48
43
57
49
51
42
60
45
57
52
45
60
47
60
43
53
47
45
52
48
50
55
40
55
60
47
47
54
49
44
52
54
54
47
55
51
49
44
44
42
59
50
47
47
59
49
56
43
47
45
58
60
48
58
45
47
52
55
43
42
55
50
48
57
57
53
45
51
52
47
45
42
57
44
53
48
58
43
49
52
49
49
49
49
45
49
56
57
49
44
50
60
58
52
41
50
46
54
57
48
45
40
40
40